Version identifier: 20.1.0.0 | 2020-11-10 | 9bedb6d68
Tried aggregator 2 times.
MIP Presolve eliminated 1300 rows and 727 columns.
MIP Presolve modified 2604 coefficients.
Aggregator did 141 substitutions.
Reduced MIP has 1115 rows, 939 columns, and 3539 nonzeros.
Reduced MIP has 255 binaries, 684 generals, 0 SOSs, and 0 indicators.
Presolve time = 0.02 sec. (5.72 ticks)
Found incumbent of value 45.000000 after 0.03 sec. (9.82 ticks)
Probing fixed 30 vars, tightened 247 bounds.
Probing time = 0.00 sec. (1.07 ticks)
Tried aggregator 2 times.
Detecting symmetries...
MIP Presolve eliminated 446 rows and 32 columns.
MIP Presolve modified 73 coefficients.
Aggregator did 6 substitutions.
Reduced MIP has 663 rows, 901 columns, and 2161 nonzeros.
Reduced MIP has 323 binaries, 578 generals, 0 SOSs, and 0 indicators.
Presolve time = 0.01 sec. (3.16 ticks)
Probing time = 0.00 sec. (0.17 ticks)
Clique table members: 31.
MIP emphasis: balance optimality and feasibility.
MIP search method: dynamic search.
Parallel mode: deterministic, using up to 24 threads.
Root relaxation solution time = 0.00 sec. (2.05 ticks)

        Nodes                                         Cuts/
   Node  Left     Objective  IInf  Best Integer    Best Bound    ItCnt     Gap

*     0+    0                           45.0000        0.0000           100.00%
      0     0        0.0000    47       45.0000        0.0000      201  100.00%
*     0+    0                           17.0000        0.0000           100.00%
      0     0        1.7000    94       17.0000     Cuts: 169      404   90.00%
*     0+    0                           13.0000        1.7000            86.92%
      0     0        2.2500   243       13.0000      Cuts: 84      571   82.69%
      0     0        3.0000    84       13.0000      Cuts: 64      609   76.92%
      0     0        3.0000   256       13.0000      Cuts: 58      657   76.92%
      0     0        3.0000    56       13.0000       Cuts: 8      678   76.92%
*     0+    0                           10.0000        3.0000            70.00%
      0     0        3.0000    65       10.0000      Cuts: 41      709   70.00%
*     0+    0                            9.0000        3.0000            66.67%
*     0+    0                            8.0000        3.0000            62.50%
      0     0        cutoff              8.0000        8.0000      709    0.00%
Elapsed time = 0.20 sec. (99.15 ticks, tree = 0.01 MB, solutions = 6)

Cover cuts applied:  7
Implied bound cuts applied:  30
Flow cuts applied:  2
Mixed integer rounding cuts applied:  8
Zero-half cuts applied:  48
Gomory fractional cuts applied:  20

Root node processing (before b&c):
  Real time             =    0.20 sec. (99.27 ticks)
Parallel b&c, 24 threads:
  Real time             =    0.00 sec. (0.00 ticks)
  Sync time (average)   =    0.00 sec.
  Wait time (average)   =    0.00 sec.
                          ------------
Total (root+branch&cut) =    0.20 sec. (99.27 ticks)

Solution status = Optimal
Solution LB = 8
Solution UB = 8
Runtime = 0.20535 seconds
	Command being timed: "/home/min/git_repos/CS598MEBProject/CNT-ILP/build/cnt -s 2 ./output/k6_n30/simC_c1_k6_n30_u2_s1_del04.input-left.cnp"
	User time (seconds): 1.68
	System time (seconds): 0.04
	Percent of CPU this job got: 696%
	Elapsed (wall clock) time (h:mm:ss or m:ss): 0:00.24
	Average shared text size (kbytes): 0
	Average unshared data size (kbytes): 0
	Average stack size (kbytes): 0
	Average total size (kbytes): 0
	Maximum resident set size (kbytes): 71848
	Average resident set size (kbytes): 0
	Major (requiring I/O) page faults: 0
	Minor (reclaiming a frame) page faults: 15045
	Voluntary context switches: 3457
	Involuntary context switches: 211
	Swaps: 0
	File system inputs: 0
	File system outputs: 16
	Socket messages sent: 0
	Socket messages received: 0
	Signals delivered: 0
	Page size (bytes): 4096
	Exit status: 0
